
  32    4
  10   10   10   10

   0   0   0   0   0  11 2 3 4 5 6 7 12 28 29 30 31 
   2   0   1   1   1   7 27 20 18 17 16 13 8 
   4   1   0   3   2   7 24 23 22 19 15 14 10 
   5   8   3   0   4   7 26 25 21 17 15 13 11 
   3   2   7   5   0   4 24 16 15 9 
   8   6   2   0   2   4 23 22 21 14 
   4   2   1   3   0   3 17 16 13 
   9   5   0   4   8   2 19 14 
   7   3   0   8   4   1 13 
  10   3   4   5   0   1 13 
   6   3   0   6   4   1 18 
   7   7   4   4   0   1 20 
   5   6   4   0   4   1 32
   5   5   5   3   0   1 32
   5   6   4   4   0   1 32
   7   0   5   3   3   1 32
   1   4   3   0   4   1 32
   3   3   3   3   0   1 32
  10   4   6   0   3   1 32
   5   0   2   4   4   1 32
  10   0   7   5   4   1 32
   3   2   0   2   7   1 32
   1   3   3   0   5   1 32
   4   4   3   3   0   1 32
   3   4   0   7   7   1 32
   7   3   0   5   6   1 32
  10   3   0   3   5   1 32
   5   5   9   0   3   1 32
   8   3   0   4   2   1 32
   3   4   0   3   4   1 32
   3   5   4   0   2   1 32
   0   0   0   0   0   0 
